(set-logic QF_SLIA)
(declare-fun var0 () String)
(assert (str.in_re var0 (re.++ ((_ re.loop 2 129) (re.++ (re.union (str.to_re "F:{") (re.union (str.to_re ":") (re.union (str.to_re "Bsn") (str.to_re "QR=")))) (re.++ (re.union (str.to_re "AV") (re.union (str.to_re "n") (re.union (str.to_re "s9") (str.to_re "O")))) (re.++ (re.union (str.to_re "4:") (re.union (str.to_re "c") (re.union (str.to_re "N") (str.to_re "Ji")))) (re.union (str.to_re "jw") (re.union (str.to_re "s") (re.union (str.to_re "3*") (str.to_re "JJ")))))))) (re.++ ((_ re.loop 7 380) (re.++ (re.union (str.to_re "PP") (re.union (str.to_re "'T") (re.union (str.to_re "L") (str.to_re "JgE")))) (re.++ (re.union (str.to_re "%") (re.union (str.to_re "|R") (re.union (str.to_re "ZC#") (str.to_re "n")))) (re.++ (re.union (str.to_re "_s$") (re.union (str.to_re "\\W") (re.union (str.to_re "9'") (str.to_re "]")))) (re.union (str.to_re "_wW") (re.union (str.to_re "?fj") (re.union (str.to_re "/u0") (str.to_re ";lo")))))))) (re.++ ((_ re.loop 5 47) (re.++ (re.union (str.to_re "NBx") (re.union (str.to_re "=C") (re.union (str.to_re "E") (str.to_re "3N")))) (re.++ (re.union (str.to_re "`") (re.union (str.to_re ".(") (re.union (str.to_re "hjt") (str.to_re "`x")))) (re.++ (re.union (str.to_re "SeS") (re.union (str.to_re "Ye") (re.union (str.to_re "W|") (str.to_re ">;")))) (re.union (str.to_re ",") (re.union (str.to_re "0:S") (re.union (str.to_re "j.") (str.to_re ">")))))))) ((_ re.loop 2 843) (re.++ (re.union (str.to_re "/") (re.union (str.to_re "py") (re.union (str.to_re "<") (str.to_re ":0")))) (re.++ (re.union (str.to_re "c") (re.union (str.to_re "c)") (re.union (str.to_re "9") (str.to_re "x")))) (re.++ (re.union (str.to_re "_!!") (re.union (str.to_re "Lq") (re.union (str.to_re "'") (str.to_re "g\\&")))) (re.union (str.to_re "\\") (re.union (str.to_re "Ny") (re.union (str.to_re "l") (str.to_re "Kg")))))))))))))
(assert (not (str.in_re var0 (re.++ ((_ re.loop 14 507) (re.++ (re.union (str.to_re "shO") (re.union (str.to_re "xUg") (re.union (str.to_re "q") (str.to_re "E:")))) (re.++ (re.union (str.to_re "y3") (re.union (str.to_re "i:c") (re.union (str.to_re "()U") (str.to_re "45")))) (re.++ (re.union (str.to_re "x-m") (re.union (str.to_re "A") (re.union (str.to_re "bc$") (str.to_re ",F")))) (re.union (str.to_re "f1") (re.union (str.to_re "4`B") (re.union (str.to_re "Zgh") (str.to_re "bg")))))))) (re.++ ((_ re.loop 1 657) (re.++ (re.union (str.to_re "=w;") (re.union (str.to_re "8XP") (re.union (str.to_re "n") (str.to_re "R%")))) (re.++ (re.union (str.to_re "flb") (re.union (str.to_re "R") (re.union (str.to_re "a") (str.to_re "gs")))) (re.++ (re.union (str.to_re "I") (re.union (str.to_re "s") (re.union (str.to_re "P0") (str.to_re "xTI")))) (re.union (str.to_re "rH") (re.union (str.to_re "'") (re.union (str.to_re "f") (str.to_re "t")))))))) (re.++ ((_ re.loop 19 713) (re.++ (re.union (str.to_re "`I") (re.union (str.to_re "-X;") (re.union (str.to_re "8b") (str.to_re "CE")))) (re.++ (re.union (str.to_re "eNe") (re.union (str.to_re "#Wq") (re.union (str.to_re "lJX") (str.to_re "_'\\")))) (re.++ (re.union (str.to_re "X+") (re.union (str.to_re "C}") (re.union (str.to_re "*n") (str.to_re "J")))) (re.union (str.to_re "$") (re.union (str.to_re "8z3") (re.union (str.to_re "x\\") (str.to_re "'?D")))))))) ((_ re.loop 17 768) (re.++ (re.union (str.to_re "aB") (re.union (str.to_re "W[+") (re.union (str.to_re "GN") (str.to_re "_")))) (re.++ (re.union (str.to_re "+") (re.union (str.to_re "b]") (re.union (str.to_re "\u0022z)") (str.to_re "+6")))) (re.++ (re.union (str.to_re "Gbd") (re.union (str.to_re "MQ$") (re.union (str.to_re "+Mh") (str.to_re "G")))) (re.union (str.to_re "zk$") (re.union (str.to_re "!b.") (re.union (str.to_re "LO") (str.to_re "z<;"))))))))))))))
(assert (not (str.in_re var0 (re.++ (re.* re.allchar) (re.++ (re.union (str.to_re "<") (re.union (str.to_re ">") (re.union (str.to_re "'") (re.union (str.to_re "\u0022") (str.to_re "&"))))) (re.* re.allchar))))))
(assert (<= 50 (str.len var0)))
(check-sat)
(get-model)
